10J3M/DAT/10J3MULA-13.dat
10 3
42.5006 1806.301
40.9774 1679.1473
34.4669 1187.9672
40.7038 1656.7993
9.4757 89.7889
1.5085 2.2756
5.752 33.0855
48.0681 2310.5422
16.6231 276.3275
46.3283 2146.3114
3729.5153