10J3M/SOL/10J3MULA-13.sol
solution status: optimal solution found
objective value:                     84.1227326510534
x#1#2                               0.161886716969179 	(obj:0)
x#1#3                               0.838113283030821 	(obj:0)
x#2#3                                               1 	(obj:0)
x#3#1                               0.414220418918875 	(obj:0)
x#3#2                               0.585779581081125 	(obj:0)
x#4#1                               0.889574164686408 	(obj:0)
x#4#2                               0.110425835313592 	(obj:0)
x#5#2                                               1 	(obj:0)
x#6#3                                               1 	(obj:0)
x#7#1                                               1 	(obj:0)
x#8#1                                               1 	(obj:0)
x#9#2                              0.0238228717512301 	(obj:0)
x#9#3                               0.976177086353235 	(obj:0)
x#10#2                                              1 	(obj:0)
z                                    84.1227326510534 	(obj:1)
